# Solution for model problem_
# Objective value = 1.8031417669776146e+05
x(0_0) 0
x(0_1) 0
x(0_2) 0
x(0_3) 1
x(0_4) 0
x(0_5) 0
x(0_6) 0
x(0_7) 0
x(0_8) 0
x(0_9) 0
x(0_10) 0
x(0_11) 0
x(0_12) 0
x(0_13) 0
x(0_14) 0
x(0_15) 0
x(0_16) 0
x(1_17) 0
x(1_18) 0
x(1_19) 0
x(1_20) 0
x(1_21) 0
x(1_22) 0
x(1_23) 0
x(1_24) 0
x(1_25) 0
x(1_26) 0
x(1_27) 0
x(1_28) 0
x(1_29) 0
x(1_30) 0
x(1_31) 0
x(1_32) 0
x(1_33) 1
x(1_34) 0
x(1_35) 0
x(2_36) 0
x(2_37) 0
x(2_38) 0
x(2_39) 0
x(2_40) 0
x(2_41) 0
x(2_42) 0
x(2_43) 0
x(2_44) 0
x(2_45) 0
x(2_46) 0
x(2_47) 0
x(2_48) 1
x(2_49) 0
x(3_50) 1
x(3_51) 0
x(3_52) 0
x(3_53) 0
x(3_54) 0
x(3_55) 0
x(3_56) 0
x(3_57) 0
x(3_58) 0
x(3_59) 0
x(3_60) 0
x(4_61) 0
x(4_62) 0
x(4_63) 0
x(4_64) 0
x(4_65) 0
x(4_66) 0
x(4_67) 0
x(4_68) 0
x(4_69) 1
x(4_70) 0
x(4_71) 0
x(4_72) 0
x(4_73) 0
x(4_74) 0
x(4_75) 0
x(4_76) 0
x(4_77) 0
x(4_78) 0
x(4_79) 0
x(4_80) 0
x(5_81) 0
x(5_82) 0
x(5_83) 0
x(5_84) 0
x(5_85) 0
x(5_86) 0
x(5_87) 0
x(5_88) 0
x(5_89) 0
x(5_90) 1
x(5_91) 0
x(5_92) 0
x(5_93) 0
x(5_94) 0
x(6_95) 0
x(6_96) 0
x(6_97) 0
x(6_98) 0
x(6_99) 0
x(6_100) 0
x(6_101) 0
x(6_102) 1
x(6_103) 0
x(6_104) 0
x(6_105) 0
x(6_106) 0
x(6_107) 0
x(6_108) 0
x(6_109) 0
x(6_110) 0
x(6_111) 0
x(6_112) 0
x(7_113) 0
x(7_114) 0
x(7_115) 0
x(7_116) 0
x(7_117) 0
x(7_118) 0
x(7_119) 0
x(7_120) 0
x(7_121) 0
x(7_122) 0
x(7_123) 0
x(7_124) 0
x(7_125) 1
x(7_126) 0
x(8_127) 0
x(8_128) 0
x(8_129) 0
x(8_130) 0
x(8_131) 0
x(8_132) 0
x(8_133) 0
x(8_134) 0
x(8_135) 1
x(8_136) 0
x(8_137) 0
x(8_138) 0
x(8_139) 0
x(9_140) 1
x(9_141) 0
x(9_142) 0
x(9_143) 0
x(9_144) 0
x(9_145) 0
x(9_146) 0
x(9_147) 0
x(9_148) 0
x(9_149) 0
x(9_150) 0
x(9_151) 0
x(10_152) 0
x(10_153) 0
x(10_154) 0
x(10_155) 0
x(10_156) 0
x(10_157) 1
x(10_158) 0
x(10_159) 0
x(10_160) 0
x(10_161) 0
x(10_162) 0
x(10_163) 0
x(11_164) 0
x(11_165) 0
x(11_166) 0
x(11_167) 0
x(11_168) 0
x(11_169) 0
x(11_170) 0
x(11_171) 0
x(11_172) 0
x(11_173) 1
x(12_174) 0
x(12_175) 0
x(12_176) 0
x(12_177) 0
x(12_178) 0
x(12_179) 0
x(12_180) 0
x(12_181) 0
x(12_182) 0
x(12_183) 0
x(12_184) 0
x(12_185) 0
x(12_186) 0
x(12_187) 0
x(12_188) 0
x(12_189) 0
x(12_190) 0
x(12_191) 1
x(13_192) 0
x(13_193) 1
x(13_194) 0
x(13_195) 0
x(13_196) 0
x(13_197) 0
x(13_198) 0
x(13_199) 0
x(13_200) 0
x(13_201) 0
x(13_202) 0
x(13_203) 0
x(13_204) 0
x(13_205) 0
x(13_206) 0
x(13_207) 0
x(13_208) 0
x(14_209) 0
x(14_210) 0
x(14_211) 0
x(14_212) 0
x(14_213) 0
x(14_214) 0
x(14_215) 1
x(14_216) 0
x(14_217) 0
x(14_218) 0
x(14_219) 0
x(14_220) 0
x(15_221) 0
x(15_222) 0
x(15_223) 0
x(15_224) 0
x(15_225) 1
x(15_226) 0
x(15_227) 0
x(15_228) 0
x(15_229) 0
x(15_230) 0
x(15_231) 0
x(15_232) 0
x(15_233) 0
x(15_234) 0
x(15_235) 0
x(15_236) 0
x(15_237) 0
x(15_238) 0
x(16_239) 1
x(16_240) 0
x(16_241) 0
x(16_242) 0
x(16_243) 0
x(16_244) 0
x(16_245) 0
x(16_246) 0
x(16_247) 0
x(16_248) 0
x(16_249) 0
x(16_250) 0
x(16_251) 0
x(16_252) 0
x(16_253) 0
x(17_254) 1
x(17_255) 0
x(17_256) 0
x(17_257) 0
x(17_258) 0
x(17_259) 0
x(17_260) 0
x(17_261) 0
x(17_262) 0
x(17_263) 0
x(17_264) 0
x(17_265) 0
x(17_266) 0
x(17_267) 0
x(17_268) 0
x(17_269) 0
x(17_270) 0
x(18_271) 0
x(18_272) 0
x(18_273) 0
x(18_274) 0
x(18_275) 0
x(18_276) 0
x(18_277) 1
x(18_278) 0
x(18_279) 0
x(18_280) 0
x(19_281) 1
x(19_282) 0
x(19_283) 0
x(19_284) 0
x(19_285) 0
x(19_286) 0
x(19_287) 0
x(19_288) 0
x(19_289) 0
x(19_290) 0
x(19_291) 0
x(19_292) 0
x(19_293) 0
x(19_294) 0
x(19_295) 0
x(20_296) 1
x(20_297) 0
x(20_298) 0
x(20_299) 0
x(20_300) 0
x(20_301) 0
x(20_302) 0
x(20_303) 0
x(20_304) 0
x(20_305) 0
x(21_306) 0
x(21_307) 0
x(21_308) 0
x(21_309) 0
x(21_310) 0
x(21_311) 0
x(21_312) 0
x(21_313) 0
x(21_314) 1
x(21_315) 0
x(22_316) 0
x(22_317) 0
x(22_318) 0
x(22_319) 0
x(22_320) 0
x(22_321) 0
x(22_322) 0
x(22_323) 0
x(22_324) 0
x(22_325) 0
x(22_326) 1
x(23_327) 0
x(23_328) 0
x(23_329) 0
x(23_330) 0
x(23_331) 0
x(23_332) 0
x(23_333) 0
x(23_334) 0
x(23_335) 1
x(23_336) 0
x(23_337) 0
x(23_338) 0
x(23_339) 0
x(23_340) 0
x(23_341) 0
x(23_342) 0
x(24_343) 0
x(24_344) 0
x(24_345) 0
x(24_346) 0
x(24_347) 0
x(24_348) 0
x(24_349) 0
x(24_350) 0
x(24_351) 0
x(24_352) 0
x(24_353) 1
x(25_354) 0
x(25_355) 1
x(25_356) 0
x(25_357) 0
x(25_358) 0
x(25_359) 0
x(25_360) 0
x(25_361) 0
x(25_362) 0
x(25_363) 0
x(25_364) 0
x(25_365) 0
x(25_366) 0
x(25_367) 0
x(25_368) 0
x(26_369) 1
x(26_370) 0
x(26_371) 0
x(26_372) 0
x(26_373) 0
x(26_374) 0
x(26_375) 0
x(26_376) 0
x(26_377) 0
x(26_378) 0
x(26_379) 0
x(26_380) 0
x(26_381) 0
x(26_382) 0
x(26_383) 0
x(26_384) 0
x(27_385) 0
x(27_386) 0
x(27_387) 0
x(27_388) 0
x(27_389) 0
x(27_390) 0
x(27_391) 0
x(27_392) 0
x(27_393) 1
x(27_394) 0
x(27_395) 0
x(27_396) 0
x(27_397) 0
x(27_398) 0
x(27_399) 0
x(27_400) 0
x(27_401) 0
x(27_402) 0
x(27_403) 0
x(27_404) 0
x(28_405) 0
x(28_406) 1
x(28_407) 0
x(28_408) 0
x(28_409) 0
x(28_410) 0
x(28_411) 0
x(28_412) 0
x(28_413) 0
x(28_414) 0
x(28_415) 0
x(28_416) 0
x(28_417) 0
x(28_418) 0
x(28_419) 0
x(28_420) 0
x(28_421) 0
x(29_422) 0
x(29_423) 0
x(29_424) 0
x(29_425) 0
x(29_426) 1
x(29_427) 0
x(29_428) 0
x(29_429) 0
x(29_430) 0
x(29_431) 0
x(29_432) 0
x(29_433) 0
x(29_434) 0
x(29_435) 0
x(30_436) 0
x(30_437) 0
x(30_438) 0
x(30_439) 0
x(30_440) 0
x(30_441) 0
x(30_442) 1
x(30_443) 0
x(30_444) 0
x(30_445) 0
x(30_446) 0
x(31_447) 0
x(31_448) 0
x(31_449) 0
x(31_450) 0
x(31_451) 0
x(31_452) 0
x(31_453) 0
x(31_454) 0
x(31_455) 0
x(31_456) 0
x(31_457) 0
x(31_458) 0
x(31_459) 0
x(31_460) 0
x(31_461) 0
x(31_462) 0
x(31_463) 0
x(31_464) 1
x(31_465) 0
x(31_466) 0
x(32_467) 0
x(32_468) 1
x(32_469) 0
x(32_470) 0
x(32_471) 0
x(32_472) 0
x(32_473) 0
x(32_474) 0
x(32_475) 0
x(32_476) 0
x(32_477) 0
x(33_478) 0
x(33_479) 0
x(33_480) 0
x(33_481) 0
x(33_482) 1
x(33_483) 0
x(33_484) 0
x(33_485) 0
x(33_486) 0
x(33_487) 0
x(33_488) 0
x(33_489) 0
x(33_490) 0
x(33_491) 0
x(34_492) 0
x(34_493) 0
x(34_494) 0
x(34_495) 0
x(34_496) 0
x(34_497) 0
x(34_498) 0
x(34_499) 0
x(34_500) 0
x(34_501) 0
x(34_502) 0
x(34_503) 1
x(34_504) 0
x(34_505) 0
x(35_506) 0
x(35_507) 0
x(35_508) 0
x(35_509) 0
x(35_510) 0
x(35_511) 0
x(35_512) 1
x(35_513) 0
x(35_514) 0
x(35_515) 0
x(35_516) 0
x(35_517) 0
x(35_518) 0
x(35_519) 0
x(35_520) 0
x(35_521) 0
x(36_522) 0
x(36_523) 0
x(36_524) 0
x(36_525) 0
x(36_526) 0
x(36_527) 0
x(36_528) 1
x(36_529) 0
x(36_530) 0
x(36_531) 0
x(36_532) 0
x(36_533) 0
x(37_534) 0
x(37_535) 0
x(37_536) 0
x(37_537) 0
x(37_538) 0
x(37_539) 0
x(37_540) 0
x(37_541) 1
x(37_542) 0
x(37_543) 0
x(37_544) 0
x(37_545) 0
x(38_546) 0
x(38_547) 0
x(38_548) 0
x(38_549) 0
x(38_550) 0
x(38_551) 1
x(38_552) 0
x(38_553) 0
x(38_554) 0
x(38_555) 0
x(38_556) 0
x(39_557) 0
x(39_558) 0
x(39_559) 0
x(39_560) 0
x(39_561) 0
x(39_562) 0
x(39_563) 0
x(39_564) 0
x(39_565) 0
x(39_566) 0
x(39_567) 0
x(39_568) 0
x(39_569) 0
x(39_570) 0
x(39_571) 0
x(39_572) 0
x(39_573) 0
x(39_574) 1
x(39_575) 0
x(40_576) 1
x(40_577) 0
x(40_578) 0
x(40_579) 0
x(40_580) 0
x(40_581) 0
x(40_582) 0
x(40_583) 0
x(40_584) 0
x(40_585) 0
x(40_586) 0
x(40_587) 0
x(40_588) 0
x(40_589) 0
x(41_590) 0
x(41_591) 0
x(41_592) 0
x(41_593) 0
x(41_594) 0
x(41_595) 0
x(41_596) 0
x(41_597) 0
x(41_598) 0
x(41_599) 0
x(41_600) 1
x(41_601) 0
x(41_602) 0
x(41_603) 0
x(41_604) 0
x(41_605) 0
x(41_606) 0
x(41_607) 0
x(41_608) 0
x(41_609) 0
x(42_610) 0
x(42_611) 0
x(42_612) 0
x(42_613) 0
x(42_614) 0
x(42_615) 0
x(42_616) 1
x(42_617) 0
x(42_618) 0
x(42_619) 0
x(42_620) 0
x(43_621) 0
x(43_622) 0
x(43_623) 0
x(43_624) 0
x(43_625) 0
x(43_626) 0
x(43_627) 0
x(43_628) 1
x(43_629) 0
x(43_630) 0
x(44_631) 0
x(44_632) 0
x(44_633) 0
x(44_634) 1
x(44_635) 0
x(44_636) 0
x(44_637) 0
x(44_638) 0
x(44_639) 0
x(44_640) 0
x(45_641) 0
x(45_642) 0
x(45_643) 0
x(45_644) 0
x(45_645) 0
x(45_646) 0
x(45_647) 1
x(45_648) 0
x(45_649) 0
x(45_650) 0
x(45_651) 0
x(45_652) 0
x(45_653) 0
x(45_654) 0
x(45_655) 0
x(45_656) 0
x(45_657) 0
x(45_658) 0
x(46_659) 0
x(46_660) 0
x(46_661) 0
x(46_662) 0
x(46_663) 0
x(46_664) 0
x(46_665) 1
x(46_666) 0
x(46_667) 0
x(46_668) 0
x(46_669) 0
x(47_670) 0
x(47_671) 0
x(47_672) 0
x(47_673) 1
x(47_674) 0
x(47_675) 0
x(47_676) 0
x(47_677) 0
x(47_678) 0
x(47_679) 0
x(47_680) 0
x(47_681) 0
x(47_682) 0
x(47_683) 0
x(47_684) 0
x(47_685) 0
x_1_0 281.165539605543
s_1_0 0
z_1_0 0
x_1_1 2.8132875680970028e+02
s_1_1 0
z_1_1 0
x_1_2 0
s_1_2 1.1357905230834149e+00
z_1_2 1
x_1_3 0
s_1_3 1.1888905225787312e+00
z_1_3 1
x_1_4 2.7972421929892153e+02
s_1_4 0
z_1_4 0
x_1_5 0
s_1_5 8.4996330091962591e-01
z_1_5 1
x_1_6 2.8206678839493543e+02
s_1_6 0
z_1_6 0
x_1_7 2.8139763182401657e+02
s_1_7 0
z_1_7 0
x_1_8 2.8102465225569904e+02
s_1_8 0
z_1_8 0
x_1_9 2.8242923239991069e+02
s_1_9 0
z_1_9 0
x_1_10 2.8235941794887185e+02
s_1_10 0
z_1_10 0
x_1_11 0
s_1_11 8.5917808336671442e-01
z_1_11 1
x_1_12 2.8140131108090281e+02
s_1_12 0
z_1_12 0
x_1_13 4.9999500249737859e+04
s_1_13 5.0000499750262141e+04
z_1_13 5.0000499750262140e-01
x_1_14 2.8181169779412448e+02
s_1_14 0
z_1_14 0
x_1_15 2.7794157508015633e+02
s_1_15 0
z_1_15 0
x_1_16 2.7983973430097103e+02
s_1_16 0
z_1_16 0
x_1_17 0
s_1_17 0.858945868210867
z_1_17 1
x_1_18 0
s_1_18 1.3367037526331842e+00
z_1_18 1
x_1_19 2.7947942316904664e+02
s_1_19 0
z_1_19 0
x_1_20 2.8018913970701396e+02
s_1_20 0
z_1_20 0
x_1_21 0
s_1_21 0.647346779005602
z_1_21 1
x_1_22 2.8259035464189947e+02
s_1_22 0
z_1_22 0
x_1_23 2.8245695879263803e+02
s_1_23 0
z_1_23 0
x_1_24 2.8010272051952779e+02
s_1_24 0
z_1_24 0
x_1_25 0
s_1_25 0.952316474635154
z_1_25 1
x_1_26 0
s_1_26 4.8336804384598508e-01
z_1_26 1
x_1_27 4.9999497003632343e+04
s_1_27 5.0000502996367657e+04
z_1_27 5.0000502996367657e-01
x_1_28 0
s_1_28 1.2375723316799849e+00
z_1_28 1
x_1_29 2.8123002622602507e+02
s_1_29 0
z_1_29 0
x_1_30 4.9999307791702566e+04
s_1_30 5.0000692208297434e+04
z_1_30 5.0000692208297437e-01
x_1_31 2.8295058353617787e+02
s_1_31 0
z_1_31 0
x_1_32 2.8092442700406536e+02
s_1_32 0
z_1_32 0
x_1_33 2.8195046557113528e+02
s_1_33 0
z_1_33 0
x_1_34 2.8202528141252697e+02
s_1_34 0
z_1_34 0
x_1_35 0
s_1_35 1.1086432022275403e+00
z_1_35 1
x_1_36 2.8065863038785756e+02
s_1_36 0
z_1_36 0
x_1_37 2.7857709467411041e+02
s_1_37 0
z_1_37 0
x_1_38 2.8301589429005980e+02
s_1_38 0
z_1_38 0
x_1_39 2.8188604193925858e+02
s_1_39 0
z_1_39 0
x_1_40 0
s_1_40 1.4472690182738006e+00
z_1_40 1
x_1_41 2.8071429223380983e+02
s_1_41 0
z_1_41 0
x_1_42 4.9999340094602027e+04
s_1_42 5.0000659905397973e+04
z_1_42 5.0000659905397971e-01
x_1_43 0
s_1_43 9.0047207426505338e-01
z_1_43 1
x_1_44 2.8347176959086210e+02
s_1_44 0
z_1_44 0
x_1_45 4.9999488825326844e+04
s_1_45 5.0000511174673156e+04
z_1_45 5.0000511174673157e-01
x_1_46 4.9999503815900789e+04
s_1_46 50000.4961840992
z_1_46 5.0000496184099208e-01
x_1_47 2.8296536553464830e+02
s_1_47 0
z_1_47 0
x_1_48 4.9999509300394631e+04
s_1_48 5.0000490699605383e+04
z_1_48 5.0000490699605371e-01
x_1_49 2.8072689111158252e+02
s_1_49 0
z_1_49 0
x_1_50 2.8258708667289466e+02
s_1_50 0
z_1_50 0
x_1_51 0
s_1_51 1.1060573952272534e+00
z_1_51 1
x_1_52 2.8121815631538630e+02
s_1_52 0
z_1_52 0
x_1_53 2.8042796194739640e+02
s_1_53 0
z_1_53 0
x_1_54 2.8085222864337265e+02
s_1_54 0
z_1_54 0
x_1_55 4.9999506374260185e+04
s_1_55 5.0000493625739829e+04
z_1_55 5.0000493625739817e-01
x_1_56 2.8141036733658984e+02
s_1_56 0
z_1_56 0
x_1_57 2.8059635599656031e+02
s_1_57 0
z_1_57 0
x_1_58 0
s_1_58 1.2987232008599676e+00
z_1_58 1
x_1_59 0
s_1_59 4.5090945408446714e-01
z_1_59 1
x_1_60 0
s_1_60 1.4222414440009743e+00
z_1_60 1
x_1_61 2.8217231845669448e+02
s_1_61 0
z_1_61 0
x_1_62 2.8289988940209150e+02
s_1_62 0
z_1_62 0
x_1_63 4.9999440847308171e+04
s_1_63 5.0000559152691822e+04
z_1_63 5.0000559152691826e-01
x_1_64 0
s_1_64 1.1200889237225056e+00
z_1_64 1
x_1_65 4.9999518598525319e+04
s_1_65 5.0000481401474695e+04
z_1_65 5.0000481401474683e-01
x_1_66 2.8119363874942064e+02
s_1_66 0
z_1_66 0
x_1_67 0
s_1_67 9.9126900429837406e-01
z_1_67 1
x_1_68 4.9999542456210314e+04
s_1_68 5.0000457543789686e+04
z_1_68 5.0000457543789689e-01
x_1_69 2.8157166592217982e+02
s_1_69 0
z_1_69 0
x_1_70 4.9999455167521031e+04
s_1_70 5.0000544832478954e+04
z_1_70 5.0000544832478966e-01
x_1_71 2.7961772920563817e+02
s_1_71 0
z_1_71 0
x_1_72 0
s_1_72 1.0433475874597207e+00
z_1_72 1
x_1_73 2.8263200746942312e+02
s_1_73 0
z_1_73 0
x_1_74 2.8162886544689536e+02
s_1_74 0
z_1_74 0
x_1_75 4.9999458674437570e+04
s_1_75 5.0000541325562430e+04
z_1_75 5.0000541325562431e-01
x_1_76 2.8090933297388256e+02
s_1_76 0
z_1_76 0
x_1_77 4.9999352226256764e+04
s_1_77 5.0000647773743229e+04
z_1_77 5.0000647773743234e-01
x_1_78 4.9999477367090381e+04
s_1_78 5.0000522632909619e+04
z_1_78 5.0000522632909616e-01
x_1_79 2.8159081969410181e+02
s_1_79 0
z_1_79 0
x_1_80 2.8234752694703639e+02
s_1_80 0
z_1_80 0
x_1_81 4.9999238514465418e+04
s_1_81 5.0000761485534589e+04
z_1_81 5.0000761485534584e-01
x_1_82 0
s_1_82 1.1012623248971067e+00
z_1_82 1
x_1_83 2.8135606005601585e+02
s_1_83 0
z_1_83 0
x_1_84 0
s_1_84 1.1343699954159092e+00
z_1_84 1
x_1_85 49999.3603914273
s_1_85 50000.6396085727
z_1_85 5.0000639608572706e-01
x_1_86 0
s_1_86 7.8980626957491040e-01
z_1_86 1
x_1_87 0
s_1_87 8.2538675313116983e-01
z_1_87 1
x_1_88 0
s_1_88 1.2574140968499705e+00
z_1_88 1
x_1_89 279.732474822551
s_1_89 0
z_1_89 0
x_1_90 2.8058594080316834e+02
s_1_90 0
z_1_90 0
x_1_91 2.7986381373181939e+02
s_1_91 0
z_1_91 0
x_1_92 2.8149430859833956e+02
s_1_92 0
z_1_92 0
x_1_93 2.8115080830827355e+02
s_1_93 0
z_1_93 0
x_1_94 2.8057115510106087e+02
s_1_94 0
z_1_94 0
x_1_95 4.9999618728822184e+04
s_1_95 5.0000381271177816e+04
z_1_95 5.0000381271177818e-01
x_1_96 2.8117039767839015e+02
s_1_96 0
z_1_96 0
x_1_97 4.9999638646091305e+04
s_1_97 5.0000361353908695e+04
z_1_97 0.500003613539087
x_1_98 2.8174762221425772e+02
s_1_98 0
z_1_98 0
x_1_99 4.9999395469644551e+04
s_1_99 5.0000604530355464e+04
z_1_99 5.0000604530355452e-01
x_1_100 4.9999439208750577e+04
s_1_100 5.0000560791249438e+04
z_1_100 5.0000560791249427e-01
x_1_101 2.8006805530562997e+02
s_1_101 0
z_1_101 0
x_1_102 2.8044148436374962e+02
s_1_102 0
z_1_102 0
x_1_103 2.8052934093493968e+02
s_1_103 0
z_1_103 0
x_1_104 2.8198428374528885e+02
s_1_104 0
z_1_104 0
x_1_105 0
s_1_105 0.643816287687514
z_1_105 1
x_1_106 0
s_1_106 1.1117558451333025e+00
z_1_106 1
x_1_107 2.8157601776055526e+02
s_1_107 0
z_1_107 0
x_1_108 0
s_1_108 1.0109453597106040e+00
z_1_108 1
x_1_109 2.7629882787354290e+02
s_1_109 0
z_1_109 0
x_1_110 2.8271753159817308e+02
s_1_110 0
z_1_110 0
x_1_111 2.8271844329684973e+02
s_1_111 0
z_1_111 0
x_1_112 2.8307050443813205e+02
s_1_112 0
z_1_112 0
x_1_113 0
s_1_113 8.7597807077690959e-01
z_1_113 1
x_1_114 2.8094317037239671e+02
s_1_114 0
z_1_114 0
x_1_115 0
s_1_115 8.3552934566978365e-01
z_1_115 1
x_1_116 0
s_1_116 8.7602889991831034e-01
z_1_116 1
x_1_117 2.7668228253303096e+02
s_1_117 0
z_1_117 0
x_1_118 2.8140661054849625e+02
s_1_118 0
z_1_118 0
x_1_119 0
s_1_119 1.6942783994600177e+00
z_1_119 1
x_1_120 0
s_1_120 1.2468020486412570e+00
z_1_120 1
x_1_121 0
s_1_121 9.9202085053548217e-01
z_1_121 1
x_1_122 49999.3432949676
s_1_122 50000.6567050324
z_1_122 0.500006567050324
x_1_123 4.9999439445507356e+04
s_1_123 5.0000560554492651e+04
z_1_123 5.0000560554492646e-01
x_1_124 0
s_1_124 8.4218875490478240e-01
z_1_124 1
x_1_125 0
s_1_125 1.0635643310379237e+00
z_1_125 1
x_1_126 2.8305512266699225e+02
s_1_126 0
z_1_126 0
x_1_127 2.8146668351790868e+02
s_1_127 0
z_1_127 0
x_1_128 0
s_1_128 3.2004264832357876e-01
z_1_128 1
x_1_129 281.681826910004
s_1_129 0
z_1_129 0
x_1_130 4.9999691576822312e+04
s_1_130 5.0000308423177688e+04
z_1_130 5.0000308423177686e-01
x_1_131 0
s_1_131 1.0077418871514965e+00
z_1_131 1
x_1_132 0
s_1_132 9.5749199879355729e-01
z_1_132 1
x_1_133 2.8031584488274530e+02
s_1_133 0
z_1_133 0
x_1_134 0
s_1_134 1.0370391060714610e+00
z_1_134 1
x_1_135 0
s_1_135 1.0522659848211333e+00
z_1_135 1
x_1_136 0
s_1_136 7.1160146279726177e-01
z_1_136 1
x_1_137 0
s_1_137 8.9109512849245220e-01
z_1_137 1
x_1_138 2.8008206940442324e+02
s_1_138 0
z_1_138 0
x_1_139 0
s_1_139 1.1936796760128345e+00
z_1_139 1
x_1_140 2.8224808250367641e+02
s_1_140 0
z_1_140 0
x_1_141 0
s_1_141 6.2678504182258621e-01
z_1_141 1
x_1_142 2.8284607316926122e+02
s_1_142 0
z_1_142 0
x_1_143 2.8209047163650393e+02
s_1_143 0
z_1_143 0
x_1_144 0
s_1_144 1.1231510743964463e+00
z_1_144 1
x_1_145 0
s_1_145 1.3494159175315872e+00
z_1_145 1
x_1_146 0
s_1_146 1.0531371966935694e+00
z_1_146 1
x_1_147 0
s_1_147 6.9063141150400043e-01
z_1_147 1
x_1_148 2.8266305438335985e+02
s_1_148 0
z_1_148 0
x_1_149 0
s_1_149 1.5075740143656731e+00
z_1_149 1
x_1_150 0
s_1_150 1.0151165968272835e+00
z_1_150 1
x_1_151 2.8172373951971531e+02
s_1_151 0
z_1_151 0
x_1_152 4.9999327055657595e+04
s_1_152 5.0000672944342405e+04
z_1_152 5.0000672944342406e-01
x_1_153 280.983860289678
s_1_153 0
z_1_153 0
x_1_154 0
s_1_154 1.1638954249210656e+00
z_1_154 1
x_1_155 2.8270696943625808e+02
s_1_155 0
z_1_155 0
x_1_156 2.8002590653300285e+02
s_1_156 0
z_1_156 0
x_1_157 0
s_1_157 1.3518396911094896e+00
z_1_157 1
x_1_158 2.8109522014111280e+02
s_1_158 0
z_1_158 0
x_1_159 2.7966459820419550e+02
s_1_159 0
z_1_159 0
x_2_0 1.7940644069776146e+05
